10	6	2.95
2 4 2 7 3 7 4 4 5 2 6 1 9 2 3 3 7 4 5 5 4 6 1
2 4 3 5 4 8 5 4 6 3 3 2 8 4 9 6 7
2 2 2 7 6 6 2 1 5 5 8
2 1 1 7 2 1 7 5 2
2 1 6 7 2 3 9 4 6
2 2 1 4 3 8 6 1 9 2 6 3 8 4 3 5 3 6 9
2 4 2 2 3 7 5 2 6 7 3 1 3 3 5 6 4
2 2 1 1 2 3 3 2 9 3 8 5 2
2 5 1 3 3 2 4 4 5 3 6 3 3 1 3 3 4 5 1
2 3 1 2 2 8 6 1 1 3 9
